p cnf 10 50
4 2 -10 0
5 -6 -3 0
10 -4 2 0
8 5 1 0
4 -1 7 0
-6 -8 4 0
4 -7 -9 0
2 -4 1 0
2 -6 9 0
-3 8 9 0
-5 -10 -2 0
6 7 -8 0
2 -3 1 0
2 -4 -1 0
4 9 10 0
2 7 1 0
-3 -2 -1 0
-5 -4 2 0
5 -1 4 0
10 3 6 0
-7 -6 5 0
-3 7 5 0
9 7 2 0
2 -4 8 0
6 -4 8 0
1 -7 10 0
-9 -5 -10 0
-2 -1 9 0
-10 8 -7 0
-1 10 8 0
3 -8 5 0
-3 4 -9 0
7 6 8 0
2 -9 7 0
-1 -3 -7 0
-7 5 10 0
-8 3 -6 0
-8 2 1 0
-8 10 -9 0
-4 8 2 0
10 -9 -8 0
-7 -8 -3 0
7 -3 9 0
6 -4 10 0
2 -10 -5 0
1 5 -2 0
-2 9 3 0
6 -3 8 0
-2 3 -8 0
6 9 2 0